c read Graph
c width = 174
c time = 234 ms
c width = 16
c time = 357 ms
c width = 15
c time = 432 ms
c width = 14
c time = 523 ms
c width = 13
c time = 624 ms
c width = 12
c time = 3049 ms
c width = 12
c time = 4506 ms
s td 170 13 187
b 1 1 2 18
b 2 2 3 18 19
b 3 15 16 33 34
b 4 3 18 19 35
b 5 15 33 34 51
b 6 137 154 155 172
b 7 153 169 170 186
b 8 137 155 172 173
b 9 153 169 185 186
b 10 3 4 5 21
b 11 3 5 20 21 36 52
b 12 5 20 21 36 38 52 54
b 13 5 21 36 38 52 54 70
b 14 5 21 38 52 54 70 86
b 15 5 21 23 38 39 54 70 86
b 16 5 23 38 39 54 56 70 72 86
b 17 5 23 39 54 56 70 72 86 88
b 18 5 23 39 56 70 72 86 88 104
b 19 70 86 87 88 104
b 20 5 23 39 56 72 86 88 104 106 124 142 158 176
b 21 5 23 39 56 72 88 90 106 124 142 158 176
b 22 72 88 89 90 106
b 23 5 23 39 56 72 90 106 108 124 142 158 176
b 24 5 23 39 56 72 74 90 108 124 142 158 176
b 25 56 72 73 74 90
b 26 5 23 39 56 74 90 92 108 124 142 158 176
b 27 74 90 91 92 108
b 28 5 23 39 56 57 74 92 108 124 142 158 176
b 29 5 23 39 57 74 75 92 108 124 142 158 176
b 30 5 23 39 41 57 75 92 108 124 142 158 176
b 31 23 39 40 41 57
b 32 5 23 41 57 75 92 108 124 126 142 158 176
b 33 5 23 41 57 75 92 108 110 126 142 158 176
b 34 92 108 109 110 126
b 35 5 23 41 57 59 75 92 110 126 142 158 176
b 36 5 23 41 59 75 92 110 126 142 158 160 176 180
b 37 5 23 41 59 75 92 110 126 142 144 160 176 180
b 38 5 23 41 59 75 92 110 126 144 160 162 176 180
b 39 144 160 162 176 178 180
b 40 160 176 177 178
b 41 144 160 161 162 178
b 42 162 178 179 180
b 43 5 23 41 59 75 92 110 126 128 144 162 180
b 44 5 23 41 59 75 76 92 110 128 144 162 180
b 45 5 23 41 59 76 77 92 93 110 128 144 162 180
b 46 5 23 41 59 77 93 95 110 112 128 144 162 180
b 47 5 23 41 59 77 95 112 128 144 146 162 180
b 48 5 23 41 59 77 95 112 128 146 162 164 180
b 49 146 162 163 164 180
b 50 5 7 23 41 59 77 95 112 128 146 164 180
b 51 7 23 25 41 59 77 95 112 128 146 164 180
b 52 7 9 25 41 59 77 95 112 128 146 164 180
b 53 9 25 41 43 59 77 95 112 128 146 164 180
b 54 9 25 27 43 59 77 95 112 128 146 164 180
b 55 9 25 26 27 43
b 56 9 27 43 59 77 95 112 128 130 146 164 180
b 57 9 27 43 59 61 77 95 112 130 146 164 180
b 58 43 59 60 61 77
b 59 9 27 43 45 61 77 95 112 130 146 164 180
b 60 27 43 44 45 61
b 61 9 27 45 61 77 79 95 112 130 146 164 180
b 62 9 27 45 61 63 79 95 112 130 146 164 180
b 63 9 27 45 63 79 95 96 112 130 146 164 180
b 64 9 27 45 63 79 96 112 114 130 146 164 180
b 65 9 27 45 63 79 96 114 130 146 148 164 180
b 66 130 146 147 148 164
b 67 9 27 45 63 79 96 114 130 132 148 164 180
b 68 114 130 131 132 148
b 69 9 27 45 63 79 80 96 114 132 148 164 180
b 70 9 27 45 63 80 96 98 114 132 148 164 180
b 71 80 96 97 98 114
b 72 9 27 45 63 80 98 114 116 132 148 164 180
b 73 98 114 115 116 132
b 74 96 112 113 114 130
b 75 45 61 62 63 79
b 76 61 77 78 79 95
b 77 112 128 129 130 146
b 78 25 41 42 43 59
b 79 7 8 9 25
b 80 7 23 24 25 41
b 81 5 6 7 23
b 82 128 144 145 146 162
b 83 77 93 95 110 111 112 128
b 84 77 93 94 95 111
b 85 110 126 127 128 144
b 86 126 142 143 144 160
b 87 142 158 159 160 176
b 88 41 57 58 59 75
b 89 108 124 125 126 142
b 90 90 106 107 108 124
b 91 86 88 104 106 124 140 142 158 176
b 92 124 140 141 142 158
b 93 86 88 104 106 122 124 140 158 176
b 94 106 122 123 124 140
b 95 88 104 105 106 122
b 96 86 104 122 140 158 174 176
b 97 86 104 120 122 140 158 174
b 98 86 103 104 120
b 99 104 120 122 140 156 158 174
b 100 140 156 157 158 174
b 101 104 120 122 138 140 156 174
b 102 120 138 156 173 174
b 103 120 137 138 156 173
b 104 137 138 155 156 173
b 105 122 138 139 140 156
b 106 104 120 121 122 138
b 107 158 174 175 176
b 108 54 70 71 72 88
b 109 38 54 55 56 72
b 110 5 21 22 23 39
b 111 52 69 70 86
b 112 36 52 53 54 70
b 113 20 36 37 38 54
b 114 3 20 35 36 52
b 115 3 19 20 35 36
b 116 9 13 27 29 45 63 80 98 116 132 148 164 180
b 117 13 29 45 47 63 80 98 116 132 148 164 180
b 118 13 29 47 63 64 80 98 116 132 148 164 180
b 119 13 29 47 64 80 82 98 116 132 148 164 180
b 120 13 29 47 64 82 98 99 116 132 148 164 180
b 121 13 29 47 64 82 99 100 116 132 148 164 180
b 122 13 29 47 64 82 100 102 116 118 132 148 164 180
b 123 100 102 116 118 132 148 164 180 182
b 124 164 180 181 182
b 125 100 102 116 118 132 148 164 166 182
b 126 100 102 116 118 132 148 150 166 182
b 127 132 148 149 150 166
b 128 100 102 116 118 132 134 150 166 182
b 129 102 118 134 150 166 182 184
b 130 102 118 134 136 150 166 184
b 131 102 118 119 136
b 132 118 134 136 150 166 168 184
b 133 150 166 167 168 184
b 134 118 134 136 150 152 168 184
b 135 134 150 151 152 168
b 136 136 152 168 184 185
b 137 136 152 153 168 185
b 138 152 153 168 169 185
b 139 118 134 135 136 152
b 140 166 182 183 184
b 141 116 132 133 134 150
b 142 100 116 117 118 134
b 143 148 164 165 166 182
b 144 29 45 46 47 63
b 145 13 29 47 64 82 84 100 102 118
b 146 13 29 47 64 66 82 84 100 102
b 147 66 82 83 84 100
b 148 13 29 47 48 64 66 82 84 102
b 149 48 64 65 66 82
b 150 13 29 31 47 48 66 84 102
b 151 13 31 48 66 68 84 102
b 152 68 84 85 102
b 153 13 31 48 50 66 68 84
b 154 13 31 32 48 50 66 68
b 155 32 48 49 50 66
b 156 13 15 31 32 50 68
b 157 13 14 15 31
b 158 15 32 50 51 68
b 159 15 32 33 50 51
b 160 50 66 67 68 84
b 161 13 29 30 31 47
b 162 84 100 101 102 118
b 163 9 11 13 27 29 45
b 164 11 27 28 29 45
b 165 9 10 11 27
b 166 11 12 13 29
b 167 64 80 81 82 98
b 168 170 186 187
b 169 154 171 172
b 170 16 17 34
1 2
2 4
3 170
3 5
4 115
5 159
6 169
6 8
7 168
7 9
8 104
9 138
10 11
11 114
11 12
12 113
12 13
13 112
13 14
14 111
14 15
15 110
15 16
16 109
16 17
17 108
17 18
18 20
18 19
20 91
20 21
21 23
21 22
23 90
23 24
24 26
24 25
26 28
26 27
28 29
29 30
30 32
30 31
32 89
32 33
33 35
33 34
35 88
35 36
36 87
36 37
37 86
37 38
38 43
38 39
39 42
39 41
39 40
43 85
43 44
44 45
45 46
46 83
46 47
47 82
47 48
48 50
48 49
50 81
50 51
51 80
51 52
52 79
52 53
53 78
53 54
54 56
54 55
56 77
56 57
57 59
57 58
59 61
59 60
61 76
61 62
62 75
62 63
63 64
64 74
64 65
65 67
65 66
67 69
67 68
69 70
70 72
70 71
72 116
72 73
83 84
91 92
91 93
93 95
93 94
93 96
96 107
96 97
97 98
97 99
99 100
99 101
101 102
101 106
101 105
102 103
103 104
114 115
116 163
116 117
117 144
117 118
118 119
119 167
119 120
120 121
121 122
122 123
122 145
123 125
123 124
125 143
125 126
126 128
126 127
128 142
128 141
128 129
129 140
129 130
130 132
130 131
132 134
132 133
134 136
134 139
134 135
136 137
137 138
145 162
145 146
146 147
146 148
148 149
148 150
150 151
150 161
151 152
151 153
153 160
153 154
154 155
154 156
156 157
156 158
158 159
163 166
163 165
163 164
